(benchmark test
:extrafuns ((x0 BitVec[16]))
:extrafuns ((x1 BitVec[16]))
:extrafuns ((x10 BitVec[16]))
:extrafuns ((x11 BitVec[16]))
:extrafuns ((x12 BitVec[16]))
:extrafuns ((x13 BitVec[16]))
:extrafuns ((x14 BitVec[16]))
:extrafuns ((x15 BitVec[16]))
:extrafuns ((x16 BitVec[16]))
:extrafuns ((x17 BitVec[16]))
:extrafuns ((x19 BitVec[16]))
:extrafuns ((x2 BitVec[16]))
:extrafuns ((x20 BitVec[16]))
:extrafuns ((x21 BitVec[16]))
:extrafuns ((x22 BitVec[16]))
:extrafuns ((x23 BitVec[16]))
:extrafuns ((x24 BitVec[16]))
:extrafuns ((x25 BitVec[16]))
:extrafuns ((x26 BitVec[16]))
:extrafuns ((x27 BitVec[16]))
:extrafuns ((x28 BitVec[16]))
:extrafuns ((x29 BitVec[16]))
:extrafuns ((x3 BitVec[16]))
:extrafuns ((x30 BitVec[16]))
:extrafuns ((x31 BitVec[16]))
:extrafuns ((x32 BitVec[16]))
:extrafuns ((x33 BitVec[16]))
:extrafuns ((x34 BitVec[16]))
:extrafuns ((x35 BitVec[16]))
:extrafuns ((x36 BitVec[16]))
:extrafuns ((x37 BitVec[16]))
:extrafuns ((x38 BitVec[16]))
:extrafuns ((x39 BitVec[16]))
:extrafuns ((x4 BitVec[16]))
:extrafuns ((x40 BitVec[16]))
:extrafuns ((x41 BitVec[16]))
:extrafuns ((x42 BitVec[16]))
:extrafuns ((x43 BitVec[16]))
:extrafuns ((x44 BitVec[16]))
:extrafuns ((x46 BitVec[16]))
:extrafuns ((x47 BitVec[16]))
:extrafuns ((x48 BitVec[16]))
:extrafuns ((x49 BitVec[16]))
:extrafuns ((x5 BitVec[16]))
:extrafuns ((x50 BitVec[16]))
:extrafuns ((x51 BitVec[16]))
:extrafuns ((x52 BitVec[16]))
:extrafuns ((x53 BitVec[16]))
:extrafuns ((x54 BitVec[16]))
:extrafuns ((x55 BitVec[16]))
:extrafuns ((x56 BitVec[16]))
:extrafuns ((x57 BitVec[16]))
:extrafuns ((x58 BitVec[16]))
:extrafuns ((x59 BitVec[16]))
:extrafuns ((x6 BitVec[16]))
:extrafuns ((x60 BitVec[16]))
:extrafuns ((x61 BitVec[16]))
:extrafuns ((x62 BitVec[16]))
:extrafuns ((x63 BitVec[16]))
:extrafuns ((x64 BitVec[16]))
:extrafuns ((x65 BitVec[16]))
:extrafuns ((x66 BitVec[16]))
:extrafuns ((x67 BitVec[16]))
:extrafuns ((x68 BitVec[16]))
:extrafuns ((x69 BitVec[16]))
:extrafuns ((x7 BitVec[16]))
:extrafuns ((x70 BitVec[16]))
:extrafuns ((x71 BitVec[16]))
:extrafuns ((x73 BitVec[16]))
:extrafuns ((x74 BitVec[16]))
:extrafuns ((x75 BitVec[16]))
:extrafuns ((x76 BitVec[16]))
:extrafuns ((x77 BitVec[16]))
:extrafuns ((x78 BitVec[16]))
:extrafuns ((x79 BitVec[16]))
:extrafuns ((x8 BitVec[16]))
:extrafuns ((x80 BitVec[16]))
:extrafuns ((x81 BitVec[16]))
:extrafuns ((x82 BitVec[16]))
:extrafuns ((x84 BitVec[16]))
:extrafuns ((x85 BitVec[16]))
:extrafuns ((x87 BitVec[16]))
:extrafuns ((x9 BitVec[16]))
:extrafuns ((x90 BitVec[16]))
:extrafuns ((x94 BitVec[16]))
:extrafuns ((x99 BitVec[16]))

:exists( x1 x10 x11 x12 x13 x14 x15 x16 x17 x19 x2 x20 x21 x22 x23 x24 x25 x26 x27 x28 x29 x3 x30 x31 x32 x33 x34 x35 x36 x37 x38 x39 x4 x40 x41 x42 x43 x44 x46 x47 x48 x49 x5 x50 x51 x52 x53 x54 x55 x56 x57 x58 x59 x6 x60 x61 x62 x63 x64 x65 x66 x67 x68 x69 x7 x70 x71 x73 x74 x75 x76 x77 x78 x79 x8 x80 x81 x82 x9)

:formula (and (and (and (and (and (and (and (and (and (and (and (and (and (and (and (and (and (and (and (and (and (and (and (and (and (and (and (and (and (and (and (and (and (and (and (and (and (and (and (and (and (and (and (and (and (and (and (and (and (and (and (and (and (and (and (and (and (and (and (and (and (and (and (and (and (and (and (and (and (and (and (and (and (and (and (and (and (and (and (and (and (and (and (and (and (and (and (and (and (and (and (and (and (and (and (and (and (bvule (bvadd (bvadd x43 (bvmul bv65535[16]  x5 ) ) bv32768[16]  ) bv32768[16]  ) (bvuge (bvadd (bvadd (bvmul bv65535[16]  x50 ) x51 ) bv32768[16]  ) bv32769[16]  ) ) (bvuge (bvadd (bvadd (bvmul bv65535[16]  x0 ) x52 ) bv32768[16]  ) bv32769[16]  ) ) (bvuge (bvadd (bvadd (bvmul bv65535[16]  x53 ) x54 ) bv32768[16]  ) bv32769[16]  ) ) (bvuge (bvadd (bvadd (bvmul bv65535[16]  x59 ) x64 ) bv32768[16]  ) bv32769[16]  ) ) (bvuge (bvadd (bvadd (bvmul bv65535[16]  x64 ) x68 ) bv32768[16]  ) bv32769[16]  ) ) (bvuge (bvadd (bvadd (bvmul bv65535[16]  x74 ) x78 ) bv32768[16]  ) bv32769[16]  ) ) (bvuge (bvadd (bvadd (bvmul bv65535[16]  x79 ) x80 ) bv32768[16]  ) bv32769[16]  ) ) (bvuge (bvadd (bvadd (bvmul bv65535[16]  x79 ) x81 ) bv32768[16]  ) bv32769[16]  ) ) (bvule (bvadd (bvadd (bvmul bv65535[16]  x62 ) x63 ) bv32768[16]  ) bv32768[16]  ) ) (bvuge (bvadd (bvadd (bvmul bv65535[16]  x4 ) x53 ) bv32768[16]  ) bv32769[16]  ) ) (bvuge (bvadd (bvadd (bvmul bv65535[16]  x4 ) x59 ) bv32768[16]  ) bv32769[16]  ) ) (bvuge (bvadd (bvadd x4 (bvmul bv65535[16]  x5 ) ) bv32768[16]  ) bv32768[16]  ) ) (bvuge (bvadd (bvadd (bvmul bv65535[16]  x0 ) x35 ) bv32768[16]  ) bv32769[16]  ) ) (bvuge (bvadd (bvadd (bvmul bv65535[16]  x0 ) x60 ) bv32768[16]  ) bv32769[16]  ) ) (bvuge (bvadd (bvadd (bvmul bv65535[16]  x0 ) x70 ) bv32768[16]  ) bv32769[16]  ) ) (bvule (bvadd (bvadd (bvmul bv65535[16]  x14 ) x16 ) bv32768[16]  ) bv32768[16]  ) ) (bvuge (bvadd (bvadd (bvmul bv65535[16]  x0 ) x9 ) bv32768[16]  ) bv32769[16]  ) ) (bvule (bvadd (bvadd (bvmul bv65535[16]  x0 ) x11 ) bv32768[16]  ) bv32768[16]  ) ) (bvule (bvadd (bvadd (bvmul bv65535[16]  x44 ) x48 ) bv32768[16]  ) bv32768[16]  ) ) (bvule (bvadd (bvadd (bvmul bv65535[16]  x5 ) x85 ) bv32768[16]  ) bv32768[16]  ) ) (bvule (bvadd (bvadd (bvmul bv65535[16]  x44 ) x49 ) bv32768[16]  ) bv32768[16]  ) ) (bvule (bvadd (bvadd (bvmul bv65535[16]  x0 ) x15 ) bv32768[16]  ) bv32768[16]  ) ) (bvule (bvadd (bvadd (bvmul bv65535[16]  x0 ) x42 ) bv32768[16]  ) bv32768[16]  ) ) (bvule (bvadd (bvadd (bvmul bv65535[16]  x0 ) x40 ) bv32768[16]  ) bv32768[16]  ) ) (bvule (bvadd (bvadd (bvmul bv65535[16]  x0 ) x69 ) bv32768[16]  ) bv32768[16]  ) ) (bvule (bvadd (bvadd (bvmul bv65535[16]  x0 ) x66 ) bv32768[16]  ) bv32768[16]  ) ) (bvule (bvadd (bvadd (bvmul bv65535[16]  x0 ) x61 ) bv32768[16]  ) bv32768[16]  ) ) (bvule (bvadd (bvadd (bvmul bv65535[16]  x0 ) x76 ) bv32768[16]  ) bv32768[16]  ) ) (bvule (bvadd (bvadd (bvmul bv65535[16]  x0 ) x47 ) bv32768[16]  ) bv32768[16]  ) ) (bvule (bvadd (bvadd (bvmul bv65535[16]  x0 ) x7 ) bv32768[16]  ) bv32768[16]  ) ) (bvule (bvadd (bvadd (bvmul bv65535[16]  x0 ) x37 ) bv32768[16]  ) bv32768[16]  ) ) (bvule (bvadd (bvadd (bvmul bv65535[16]  x0 ) x26 ) bv32768[16]  ) bv32768[16]  ) ) (bvule (bvadd (bvadd (bvmul bv65535[16]  x12 ) x14 ) bv32768[16]  ) bv32767[16]  ) ) (bvule (bvadd (bvadd (bvmul bv65535[16]  x3 ) x4 ) bv32768[16]  ) bv32767[16]  ) ) (bvule (bvadd (bvadd (bvmul bv65535[16]  x0 ) x4 ) bv32768[16]  ) bv32767[16]  ) ) (bvule (bvadd (bvadd (bvmul bv65535[16]  x0 ) x34 ) bv32768[16]  ) bv32768[16]  ) ) (bvule (bvadd (bvadd (bvmul bv65535[16]  x0 ) x4 ) bv32768[16]  ) bv32768[16]  ) ) (bvule (bvadd (bvadd (bvmul bv65535[16]  x0 ) x33 ) bv32768[16]  ) bv32768[16]  ) ) (bvule (bvadd (bvadd (bvmul bv65535[16]  x3 ) x5 ) bv32768[16]  ) bv32767[16]  ) ) (bvule (bvadd (bvadd (bvmul bv65535[16]  x0 ) x71 ) bv32768[16]  ) bv32768[16]  ) ) (bvule (bvadd (bvadd (bvmul bv65535[16]  x0 ) x6 ) bv32768[16]  ) bv32768[16]  ) ) (bvule (bvadd (bvadd (bvmul bv65535[16]  x0 ) x5 ) bv32768[16]  ) bv32767[16]  ) ) (= (bvadd (bvmul bv1[16]  x24 ) (bvmul bv1[16]  x25 ) ) bv0[16]  ) ) (not (= (bvadd (bvmul bv1[16]  x2 ) (bvmul bv65535[16]  x46 ) ) bv0[16]  )) ) (not (= (bvadd (bvmul bv1[16]  x2 ) (bvmul bv65535[16]  x94 ) ) bv0[16]  )) ) (not (= (bvadd (bvmul bv65535[16]  x0 ) (bvmul bv1[16]  x36 ) ) bv1[16]  )) ) (not (= (bvadd (bvmul bv65535[16]  x0 ) (bvmul bv1[16]  x4 ) ) bv0[16]  )) ) (not (= (bvadd (bvmul bv65535[16]  x38 ) (bvmul bv1[16]  x41 ) ) bv0[16]  )) ) (not (= (bvadd (bvmul bv65535[16]  x0 ) (bvmul bv1[16]  x5 ) ) bv0[16]  )) ) (not (= (bvadd (bvmul bv65535[16]  x63 ) (bvmul bv1[16]  x67 ) ) bv0[16]  )) ) (not (= (bvadd (bvmul bv65535[16]  x73 ) (bvmul bv1[16]  x77 ) ) bv0[16]  )) ) (not (= (bvadd (bvmul bv65535[16]  x0 ) (bvmul bv1[16]  x8 ) ) bv0[16]  )) ) (not (= (bvadd (bvmul bv65535[16]  x82 ) (bvmul bv1[16]  x99 ) ) bv0[16]  )) ) (not (= (bvadd (bvmul bv65535[16]  x2 ) (bvmul bv1[16]  x46 ) ) bv0[16]  )) ) (= (bvadd (bvmul bv65535[16]  x58 ) (bvmul bv1[16]  x59 ) ) bv2[16]  ) ) (= (bvadd (bvmul bv65535[16]  x22 ) (bvmul bv1[16]  x23 ) ) bv0[16]  ) ) (= (bvadd (bvmul bv65535[16]  x65 ) (bvmul bv1[16]  x67 ) ) bv1[16]  ) ) (= (bvadd (bvmul bv65535[16]  x49 ) (bvmul bv1[16]  x74 ) ) bv1[16]  ) ) (= (bvadd (bvmul bv65535[16]  x3 ) (bvmul bv1[16]  x30 ) ) bv1[16]  ) ) (= (bvadd (bvmul bv1[16]  x3 ) (bvmul bv1[16]  x87 ) ) bv0[16]  ) ) (= (bvadd (bvmul bv1[16]  x17 ) (bvmul bv1[16]  x21 ) ) bv0[16]  ) ) (= (bvadd (bvmul bv65535[16]  x75 ) (bvmul bv1[16]  x77 ) ) bv1[16]  ) ) (= (bvadd (bvmul bv65535[16]  x4 ) (bvmul bv1[16]  x73 ) ) bv65535[16]  ) ) (bvule (bvadd (bvadd x36 (bvmul bv65535[16]  x4 ) ) bv32768[16]  ) bv32768[16]  ) ) (bvule (bvadd (bvadd x32 (bvmul bv65535[16]  x5 ) ) bv32768[16]  ) bv32768[16]  ) ) (bvule (bvadd (bvadd x51 (bvmul bv65535[16]  x8 ) ) bv32768[16]  ) bv32768[16]  ) ) (bvule (bvadd (bvadd x3 (bvmul bv65535[16]  x82 ) ) bv32768[16]  ) bv32767[16]  ) ) (= (bvadd (bvmul bv1[16]  x4 ) (bvmul bv1[16]  x82 ) ) bv0[16]  ) ) (= (bvadd (bvmul bv1[16]  x10 ) (bvmul bv1[16]  x5 ) ) bv0[16]  ) ) (= (bvadd (bvmul bv65535[16]  x39 ) (bvmul bv1[16]  x41 ) ) bv1[16]  ) ) (= (bvadd (bvmul bv65535[16]  x55 ) (bvmul bv1[16]  x56 ) ) bv1[16]  ) ) (= (bvadd (bvmul bv1[16]  x12 ) (bvmul bv65535[16]  x3 ) ) bv1[16]  ) ) (= (bvadd (bvmul bv1[16]  x53 ) (bvmul bv65535[16]  x58 ) ) bv1[16]  ) ) (= (bvadd (bvmul bv65535[16]  x4 ) (bvmul bv1[16]  x84 ) ) bv65535[16]  ) ) (= (bvadd (bvmul bv65535[16]  x36 ) (bvmul bv1[16]  x38 ) ) bv65535[16]  ) ) (= (bvadd (bvmul bv65535[16]  x3 ) (bvmul bv1[16]  x90 ) ) bv65535[16]  ) ) (= (bvadd (bvmul bv65535[16]  x4 ) (bvmul bv1[16]  x62 ) ) bv65534[16]  ) ) (= (bvadd (bvmul bv65535[16]  x0 ) (bvmul bv1[16]  x58 ) ) bv0[16]  ) ) (= (bvadd (bvmul bv65535[16]  x14 ) (bvmul bv1[16]  x17 ) ) bv0[16]  ) ) (= (bvadd (bvmul bv65535[16]  x1 ) (bvmul bv1[16]  x19 ) ) bv0[16]  ) ) (= (bvadd (bvmul bv65535[16]  x0 ) (bvmul bv1[16]  x39 ) ) bv0[16]  ) ) (= (bvadd (bvmul bv1[16]  x44 ) (bvmul bv65535[16]  x5 ) ) bv0[16]  ) ) (= (bvadd (bvmul bv65535[16]  x1 ) (bvmul bv1[16]  x46 ) ) bv0[16]  ) ) (= (bvadd (bvmul bv65535[16]  x0 ) (bvmul bv1[16]  x65 ) ) bv0[16]  ) ) (= (bvadd (bvmul bv65535[16]  x0 ) (bvmul bv1[16]  x75 ) ) bv0[16]  ) ) (= (bvadd (bvmul bv65535[16]  x0 ) (bvmul bv1[16]  x79 ) ) bv1[16]  ) ) (bvule (bvadd (bvadd (bvmul bv65535[16]  x0 ) x20 ) bv32768[16]  ) bv32768[16]  ) ) (bvule (bvadd (bvadd (bvmul bv65535[16]  x0 ) x31 ) bv32768[16]  ) bv32768[16]  ) ) (bvule (bvadd (bvadd (bvmul bv65535[16]  x0 ) x29 ) bv32768[16]  ) bv32768[16]  ) ) (bvule (bvadd (bvadd (bvmul bv65535[16]  x0 ) x57 ) bv32768[16]  ) bv32768[16]  ) ) (bvuge (bvadd (bvadd x30 (bvmul bv65535[16]  x5 ) ) bv32768[16]  ) bv32769[16]  ) ) (bvuge (bvadd (bvadd (bvmul bv65535[16]  x0 ) x10 ) bv32768[16]  ) bv32769[16]  ) ) (bvuge (bvadd (bvadd (bvmul bv65535[16]  x0 ) x13 ) bv32768[16]  ) bv32769[16]  ) ) (bvuge (bvadd (bvadd (bvmul bv65535[16]  x0 ) x10 ) bv32768[16]  ) bv32767[16]  ) ) (bvuge (bvadd (bvadd (bvmul bv65535[16]  x3 ) x85 ) bv32768[16]  ) bv32768[16]  ) ) (not (= (bvadd (bvmul bv1[16]  x27 ) (bvmul bv65535[16]  x28 ) ) bv0[16]  )) ) (not (= (bvadd (bvmul bv65535[16]  x0 ) (bvmul bv1[16]  x56 ) ) bv0[16]  )) )

)
